data/lp_files/pEFS/85_1.lp
\ Model foo
\ LP format - for model browsing. Use MPS format to capture full model detail.
Minimize
  z
Subject To
 allocateEach[1]: x[1,1] + x[2,1] + x[3,1] + x[4,1] + x[5,1] = 1
 allocateEach[2]: x[1,2] + x[2,2] + x[3,2] + x[4,2] + x[5,2] = 1
 allocateEach[3]: x[1,3] + x[2,3] + x[3,3] + x[4,3] + x[5,3] = 1
 allocateEach[4]: x[1,4] + x[2,4] + x[3,4] + x[4,4] + x[5,4] = 1
 allocateEach[5]: x[1,5] + x[2,5] + x[3,5] + x[4,5] + x[5,5] = 1
 allocateAllCash: cashProportion[1] + cashProportion[2] + cashProportion[3]
   + cashProportion[4] + cashProportion[5] = 1
 findWorstP[1,2]: z + 0.0350336322869955 cashProportion[1]
   - 0.0350336322869955 cashProportion[2] + 0.3298766816143498 x[1,1]
   + 0.0538116591928251 x[1,2] + 0.3043371636771301 x[1,3]
   + 0.2592839125560538 x[1,4] + 0.0176569506726457 x[1,5]
   - 0.3298766816143498 x[2,1] - 0.0538116591928251 x[2,2]
   - 0.3043371636771301 x[2,3] - 0.2592839125560538 x[2,4]
   - 0.0176569506726457 x[2,5] >= 0
 findWorstP[1,3]: z + 0.0350336322869955 cashProportion[1]
   - 0.0350336322869955 cashProportion[3] + 0.3298766816143498 x[1,1]
   + 0.0538116591928251 x[1,2] + 0.3043371636771301 x[1,3]
   + 0.2592839125560538 x[1,4] + 0.0176569506726457 x[1,5]
   - 0.3298766816143498 x[3,1] - 0.0538116591928251 x[3,2]
   - 0.3043371636771301 x[3,3] - 0.2592839125560538 x[3,4]
   - 0.0176569506726457 x[3,5] >= 0
 findWorstP[1,4]: z + 0.0350336322869955 cashProportion[1]
   - 0.0350336322869955 cashProportion[4] + 0.3298766816143498 x[1,1]
   + 0.0538116591928251 x[1,2] + 0.3043371636771301 x[1,3]
   + 0.2592839125560538 x[1,4] + 0.0176569506726457 x[1,5]
   - 0.3298766816143498 x[4,1] - 0.0538116591928251 x[4,2]
   - 0.3043371636771301 x[4,3] - 0.2592839125560538 x[4,4]
   - 0.0176569506726457 x[4,5] >= 0
 findWorstP[1,5]: z + 0.0350336322869955 cashProportion[1]
   - 0.0350336322869955 cashProportion[5] + 0.3298766816143498 x[1,1]
   + 0.0538116591928251 x[1,2] + 0.3043371636771301 x[1,3]
   + 0.2592839125560538 x[1,4] + 0.0176569506726457 x[1,5]
   - 0.3298766816143498 x[5,1] - 0.0538116591928251 x[5,2]
   - 0.3043371636771301 x[5,3] - 0.2592839125560538 x[5,4]
   - 0.0176569506726457 x[5,5] >= 0
 findWorstP[2,1]: z - 0.0399010454073897 cashProportion[1]
   + 0.0399010454073897 cashProportion[2] - 0.0373074774559093 x[1,1]
   - 0.2173409943340515 x[1,2] - 0.3231984677998563 x[1,3]
   - 0.2007820604899848 x[1,4] - 0.1814699545128082 x[1,5]
   + 0.0373074774559093 x[2,1] + 0.2173409943340515 x[2,2]
   + 0.3231984677998563 x[2,3] + 0.2007820604899848 x[2,4]
   + 0.1814699545128082 x[2,5] >= 0
 findWorstP[2,3]: z + 0.0399010454073897 cashProportion[2]
   - 0.0399010454073897 cashProportion[3] + 0.0373074774559093 x[2,1]
   + 0.2173409943340515 x[2,2] + 0.3231984677998563 x[2,3]
   + 0.2007820604899848 x[2,4] + 0.1814699545128082 x[2,5]
   - 0.0373074774559093 x[3,1] - 0.2173409943340515 x[3,2]
   - 0.3231984677998563 x[3,3] - 0.2007820604899848 x[3,4]
   - 0.1814699545128082 x[3,5] >= 0
 findWorstP[2,4]: z + 0.0399010454073897 cashProportion[2]
   - 0.0399010454073897 cashProportion[4] + 0.0373074774559093 x[2,1]
   + 0.2173409943340515 x[2,2] + 0.3231984677998563 x[2,3]
   + 0.2007820604899848 x[2,4] + 0.1814699545128082 x[2,5]
   - 0.0373074774559093 x[4,1] - 0.2173409943340515 x[4,2]
   - 0.3231984677998563 x[4,3] - 0.2007820604899848 x[4,4]
   - 0.1814699545128082 x[4,5] >= 0
 findWorstP[2,5]: z + 0.0399010454073897 cashProportion[2]
   - 0.0399010454073897 cashProportion[5] + 0.0373074774559093 x[2,1]
   + 0.2173409943340515 x[2,2] + 0.3231984677998563 x[2,3]
   + 0.2007820604899848 x[2,4] + 0.1814699545128082 x[2,5]
   - 0.0373074774559093 x[5,1] - 0.2173409943340515 x[5,2]
   - 0.3231984677998563 x[5,3] - 0.2007820604899848 x[5,4]
   - 0.1814699545128082 x[5,5] >= 0
 findWorstP[3,1]: z - 0.0307730182176268 cashProportion[1]
   + 0.0307730182176268 cashProportion[3] - 0.2259354997538159 x[1,1]
   - 0.2687407680945347 x[1,2] - 0.1806991629739045 x[1,3]
   - 0.0709625800098474 x[1,4] - 0.2228889709502708 x[1,5]
   + 0.2259354997538159 x[3,1] + 0.2687407680945347 x[3,2]
   + 0.1806991629739045 x[3,3] + 0.0709625800098474 x[3,4]
   + 0.2228889709502708 x[3,5] >= 0
 findWorstP[3,2]: z - 0.0307730182176268 cashProportion[2]
   + 0.0307730182176268 cashProportion[3] - 0.2259354997538159 x[2,1]
   - 0.2687407680945347 x[2,2] - 0.1806991629739045 x[2,3]
   - 0.0709625800098474 x[2,4] - 0.2228889709502708 x[2,5]
   + 0.2259354997538159 x[3,1] + 0.2687407680945347 x[3,2]
   + 0.1806991629739045 x[3,3] + 0.0709625800098474 x[3,4]
   + 0.2228889709502708 x[3,5] >= 0
 findWorstP[3,4]: z + 0.0307730182176268 cashProportion[3]
   - 0.0307730182176268 cashProportion[4] + 0.2259354997538159 x[3,1]
   + 0.2687407680945347 x[3,2] + 0.1806991629739045 x[3,3]
   + 0.0709625800098474 x[3,4] + 0.2228889709502708 x[3,5]
   - 0.2259354997538159 x[4,1] - 0.2687407680945347 x[4,2]
   - 0.1806991629739045 x[4,3] - 0.0709625800098474 x[4,4]
   - 0.2228889709502708 x[4,5] >= 0
 findWorstP[3,5]: z + 0.0307730182176268 cashProportion[3]
   - 0.0307730182176268 cashProportion[5] + 0.2259354997538159 x[3,1]
   + 0.2687407680945347 x[3,2] + 0.1806991629739045 x[3,3]
   + 0.0709625800098474 x[3,4] + 0.2228889709502708 x[3,5]
   - 0.2259354997538159 x[5,1] - 0.2687407680945347 x[5,2]
   - 0.1806991629739045 x[5,3] - 0.0709625800098474 x[5,4]
   - 0.2228889709502708 x[5,5] >= 0
 findWorstP[4,1]: z - 0.0275709953129308 cashProportion[1]
   + 0.0275709953129308 cashProportion[4] - 0.2262200165425972 x[1,1]
   - 0.2700578990901571 x[1,2] - 0.2360904328646264 x[1,3]
   - 0.0909291425420458 x[1,4] - 0.1491315136476427 x[1,5]
   + 0.2262200165425972 x[4,1] + 0.2700578990901571 x[4,2]
   + 0.2360904328646264 x[4,3] + 0.0909291425420458 x[4,4]
   + 0.1491315136476427 x[4,5] >= 0
 findWorstP[4,2]: z - 0.0275709953129308 cashProportion[2]
   + 0.0275709953129308 cashProportion[4] - 0.2262200165425972 x[2,1]
   - 0.2700578990901571 x[2,2] - 0.2360904328646264 x[2,3]
   - 0.0909291425420458 x[2,4] - 0.1491315136476427 x[2,5]
   + 0.2262200165425972 x[4,1] + 0.2700578990901571 x[4,2]
   + 0.2360904328646264 x[4,3] + 0.0909291425420458 x[4,4]
   + 0.1491315136476427 x[4,5] >= 0
 findWorstP[4,3]: z - 0.0275709953129308 cashProportion[3]
   + 0.0275709953129308 cashProportion[4] - 0.2262200165425972 x[3,1]
   - 0.2700578990901571 x[3,2] - 0.2360904328646264 x[3,3]
   - 0.0909291425420458 x[3,4] - 0.1491315136476427 x[3,5]
   + 0.2262200165425972 x[4,1] + 0.2700578990901571 x[4,2]
   + 0.2360904328646264 x[4,3] + 0.0909291425420458 x[4,4]
   + 0.1491315136476427 x[4,5] >= 0
 findWorstP[4,5]: z + 0.0275709953129308 cashProportion[4]
   - 0.0275709953129308 cashProportion[5] + 0.2262200165425972 x[4,1]
   + 0.2700578990901571 x[4,2] + 0.2360904328646264 x[4,3]
   + 0.0909291425420458 x[4,4] + 0.1491315136476427 x[4,5]
   - 0.2262200165425972 x[5,1] - 0.2700578990901571 x[5,2]
   - 0.2360904328646264 x[5,3] - 0.0909291425420458 x[5,4]
   - 0.1491315136476427 x[5,5] >= 0
 findWorstP[5,1]: z - 0.0265027032757341 cashProportion[1]
   + 0.0265027032757341 cashProportion[5] - 0.2399024700519453 x[1,1]
   - 0.0828209477366691 x[1,2] - 0.2355030213081735 x[1,3]
   - 0.2377822537898866 x[1,4] - 0.1774886038375915 x[1,5]
   + 0.2399024700519453 x[5,1] + 0.0828209477366691 x[5,2]
   + 0.2355030213081735 x[5,3] + 0.2377822537898866 x[5,4]
   + 0.1774886038375915 x[5,5] >= 0
 findWorstP[5,2]: z - 0.0265027032757341 cashProportion[2]
   + 0.0265027032757341 cashProportion[5] - 0.2399024700519453 x[2,1]
   - 0.0828209477366691 x[2,2] - 0.2355030213081735 x[2,3]
   - 0.2377822537898866 x[2,4] - 0.1774886038375915 x[2,5]
   + 0.2399024700519453 x[5,1] + 0.0828209477366691 x[5,2]
   + 0.2355030213081735 x[5,3] + 0.2377822537898866 x[5,4]
   + 0.1774886038375915 x[5,5] >= 0
 findWorstP[5,3]: z - 0.0265027032757341 cashProportion[3]
   + 0.0265027032757341 cashProportion[5] - 0.2399024700519453 x[3,1]
   - 0.0828209477366691 x[3,2] - 0.2355030213081735 x[3,3]
   - 0.2377822537898866 x[3,4] - 0.1774886038375915 x[3,5]
   + 0.2399024700519453 x[5,1] + 0.0828209477366691 x[5,2]
   + 0.2355030213081735 x[5,3] + 0.2377822537898866 x[5,4]
   + 0.1774886038375915 x[5,5] >= 0
 findWorstP[5,4]: z - 0.0265027032757341 cashProportion[4]
   + 0.0265027032757341 cashProportion[5] - 0.2399024700519453 x[4,1]
   - 0.0828209477366691 x[4,2] - 0.2355030213081735 x[4,3]
   - 0.2377822537898866 x[4,4] - 0.1774886038375915 x[4,5]
   + 0.2399024700519453 x[5,1] + 0.0828209477366691 x[5,2]
   + 0.2355030213081735 x[5,3] + 0.2377822537898866 x[5,4]
   + 0.1774886038375915 x[5,5] >= 0
Bounds
 z <= 1
 -infinity <= cashProportion[1] <= 1
 -infinity <= cashProportion[2] <= 1
 -infinity <= cashProportion[3] <= 1
 -infinity <= cashProportion[4] <= 1
 -infinity <= cashProportion[5] <= 1
Binaries
 x[1,1] x[1,2] x[1,3] x[1,4] x[1,5] x[2,1] x[2,2] x[2,3] x[2,4] x[2,5]
 x[3,1] x[3,2] x[3,3] x[3,4] x[3,5] x[4,1] x[4,2] x[4,3] x[4,4] x[4,5]
 x[5,1] x[5,2] x[5,3] x[5,4] x[5,5]
End
