data/mps_files/q3/85_1.mps
NAME foo
ROWS
 N  OBJ
 E  allocateEach[1]
 E  allocateEach[2]
 E  allocateEach[3]
 E  allocateEach[4]
 E  allocateEach[5]
 E  allocateAllCash
 G  findWorstP[1,2]
 G  findWorstP[1,3]
 G  findWorstP[1,4]
 G  findWorstP[1,5]
 G  findWorstP[2,1]
 G  findWorstP[2,3]
 G  findWorstP[2,4]
 G  findWorstP[2,5]
 G  findWorstP[3,1]
 G  findWorstP[3,2]
 G  findWorstP[3,4]
 G  findWorstP[3,5]
 G  findWorstP[4,1]
 G  findWorstP[4,2]
 G  findWorstP[4,3]
 G  findWorstP[4,5]
 G  findWorstP[5,1]
 G  findWorstP[5,2]
 G  findWorstP[5,3]
 G  findWorstP[5,4]
COLUMNS
    z         OBJ       1
    z         findWorstP[1,2]  1
    z         findWorstP[1,3]  1
    z         findWorstP[1,4]  1
    z         findWorstP[1,5]  1
    z         findWorstP[2,1]  1
    z         findWorstP[2,3]  1
    z         findWorstP[2,4]  1
    z         findWorstP[2,5]  1
    z         findWorstP[3,1]  1
    z         findWorstP[3,2]  1
    z         findWorstP[3,4]  1
    z         findWorstP[3,5]  1
    z         findWorstP[4,1]  1
    z         findWorstP[4,2]  1
    z         findWorstP[4,3]  1
    z         findWorstP[4,5]  1
    z         findWorstP[5,1]  1
    z         findWorstP[5,2]  1
    z         findWorstP[5,3]  1
    z         findWorstP[5,4]  1
    cashProportion[1]  allocateAllCash  1
    cashProportion[1]  findWorstP[1,2]  3.5033632286995520e-02
    cashProportion[1]  findWorstP[1,3]  3.5033632286995520e-02
    cashProportion[1]  findWorstP[1,4]  3.5033632286995520e-02
    cashProportion[1]  findWorstP[1,5]  3.5033632286995520e-02
    cashProportion[1]  findWorstP[2,1]  -3.9901045407389674e-02
    cashProportion[1]  findWorstP[3,1]  -3.0773018217626787e-02
    cashProportion[1]  findWorstP[4,1]  -2.7570995312930797e-02
    cashProportion[1]  findWorstP[5,1]  -2.6502703275734132e-02
    cashProportion[2]  allocateAllCash  1
    cashProportion[2]  findWorstP[1,2]  -3.5033632286995520e-02
    cashProportion[2]  findWorstP[2,1]  3.9901045407389674e-02
    cashProportion[2]  findWorstP[2,3]  3.9901045407389674e-02
    cashProportion[2]  findWorstP[2,4]  3.9901045407389674e-02
    cashProportion[2]  findWorstP[2,5]  3.9901045407389674e-02
    cashProportion[2]  findWorstP[3,2]  -3.0773018217626787e-02
    cashProportion[2]  findWorstP[4,2]  -2.7570995312930797e-02
    cashProportion[2]  findWorstP[5,2]  -2.6502703275734132e-02
    cashProportion[3]  allocateAllCash  1
    cashProportion[3]  findWorstP[1,3]  -3.5033632286995520e-02
    cashProportion[3]  findWorstP[2,3]  -3.9901045407389674e-02
    cashProportion[3]  findWorstP[3,1]  3.0773018217626787e-02
    cashProportion[3]  findWorstP[3,2]  3.0773018217626787e-02
    cashProportion[3]  findWorstP[3,4]  3.0773018217626787e-02
    cashProportion[3]  findWorstP[3,5]  3.0773018217626787e-02
    cashProportion[3]  findWorstP[4,3]  -2.7570995312930797e-02
    cashProportion[3]  findWorstP[5,3]  -2.6502703275734132e-02
    cashProportion[4]  allocateAllCash  1
    cashProportion[4]  findWorstP[1,4]  -3.5033632286995520e-02
    cashProportion[4]  findWorstP[2,4]  -3.9901045407389674e-02
    cashProportion[4]  findWorstP[3,4]  -3.0773018217626787e-02
    cashProportion[4]  findWorstP[4,1]  2.7570995312930797e-02
    cashProportion[4]  findWorstP[4,2]  2.7570995312930797e-02
    cashProportion[4]  findWorstP[4,3]  2.7570995312930797e-02
    cashProportion[4]  findWorstP[4,5]  2.7570995312930797e-02
    cashProportion[4]  findWorstP[5,4]  -2.6502703275734132e-02
    cashProportion[5]  allocateAllCash  1
    cashProportion[5]  findWorstP[1,5]  -3.5033632286995520e-02
    cashProportion[5]  findWorstP[2,5]  -3.9901045407389674e-02
    cashProportion[5]  findWorstP[3,5]  -3.0773018217626787e-02
    cashProportion[5]  findWorstP[4,5]  -2.7570995312930797e-02
    cashProportion[5]  findWorstP[5,1]  2.6502703275734132e-02
    cashProportion[5]  findWorstP[5,2]  2.6502703275734132e-02
    cashProportion[5]  findWorstP[5,3]  2.6502703275734132e-02
    cashProportion[5]  findWorstP[5,4]  2.6502703275734132e-02
    MARKER    'MARKER'                 'INTORG'
    x[1,1]    allocateEach[1]  1
    x[1,1]    findWorstP[1,2]  3.2987668161434980e-01
    x[1,1]    findWorstP[1,3]  3.2987668161434980e-01
    x[1,1]    findWorstP[1,4]  3.2987668161434980e-01
    x[1,1]    findWorstP[1,5]  3.2987668161434980e-01
    x[1,1]    findWorstP[2,1]  -3.7307477455909337e-02
    x[1,1]    findWorstP[3,1]  -2.2593549975381585e-01
    x[1,1]    findWorstP[4,1]  -2.2622001654259719e-01
    x[1,1]    findWorstP[5,1]  -2.3990247005194534e-01
    x[1,2]    allocateEach[2]  1
    x[1,2]    findWorstP[1,2]  5.3811659192825115e-02
    x[1,2]    findWorstP[1,3]  5.3811659192825115e-02
    x[1,2]    findWorstP[1,4]  5.3811659192825115e-02
    x[1,2]    findWorstP[1,5]  5.3811659192825115e-02
    x[1,2]    findWorstP[2,1]  -2.1734099433405152e-01
    x[1,2]    findWorstP[3,1]  -2.6874076809453473e-01
    x[1,2]    findWorstP[4,1]  -2.7005789909015715e-01
    x[1,2]    findWorstP[5,1]  -8.2820947736669148e-02
    x[1,3]    allocateEach[3]  1
    x[1,3]    findWorstP[1,2]  3.0433716367713010e-01
    x[1,3]    findWorstP[1,3]  3.0433716367713010e-01
    x[1,3]    findWorstP[1,4]  3.0433716367713010e-01
    x[1,3]    findWorstP[1,5]  3.0433716367713010e-01
    x[1,3]    findWorstP[2,1]  -3.2319846779985634e-01
    x[1,3]    findWorstP[3,1]  -1.8069916297390451e-01
    x[1,3]    findWorstP[4,1]  -2.3609043286462639e-01
    x[1,3]    findWorstP[5,1]  -2.3550302130817347e-01
    x[1,4]    allocateEach[4]  1
    x[1,4]    findWorstP[1,2]  2.5928391255605382e-01
    x[1,4]    findWorstP[1,3]  2.5928391255605382e-01
    x[1,4]    findWorstP[1,4]  2.5928391255605382e-01
    x[1,4]    findWorstP[1,5]  2.5928391255605382e-01
    x[1,4]    findWorstP[2,1]  -2.0078206048998481e-01
    x[1,4]    findWorstP[3,1]  -7.0962580009847370e-02
    x[1,4]    findWorstP[4,1]  -9.0929142542045760e-02
    x[1,4]    findWorstP[5,1]  -2.3778225378988660e-01
    x[1,5]    allocateEach[5]  1
    x[1,5]    findWorstP[1,2]  1.7656950672645742e-02
    x[1,5]    findWorstP[1,3]  1.7656950672645742e-02
    x[1,5]    findWorstP[1,4]  1.7656950672645742e-02
    x[1,5]    findWorstP[1,5]  1.7656950672645742e-02
    x[1,5]    findWorstP[2,1]  -1.8146995451280820e-01
    x[1,5]    findWorstP[3,1]  -2.2288897095027083e-01
    x[1,5]    findWorstP[4,1]  -1.4913151364764268e-01
    x[1,5]    findWorstP[5,1]  -1.7748860383759146e-01
    x[2,1]    allocateEach[1]  1
    x[2,1]    findWorstP[1,2]  -3.2987668161434980e-01
    x[2,1]    findWorstP[2,1]  3.7307477455909337e-02
    x[2,1]    findWorstP[2,3]  3.7307477455909337e-02
    x[2,1]    findWorstP[2,4]  3.7307477455909337e-02
    x[2,1]    findWorstP[2,5]  3.7307477455909337e-02
    x[2,1]    findWorstP[3,2]  -2.2593549975381585e-01
    x[2,1]    findWorstP[4,2]  -2.2622001654259719e-01
    x[2,1]    findWorstP[5,2]  -2.3990247005194534e-01
    x[2,2]    allocateEach[2]  1
    x[2,2]    findWorstP[1,2]  -5.3811659192825115e-02
    x[2,2]    findWorstP[2,1]  2.1734099433405152e-01
    x[2,2]    findWorstP[2,3]  2.1734099433405152e-01
    x[2,2]    findWorstP[2,4]  2.1734099433405152e-01
    x[2,2]    findWorstP[2,5]  2.1734099433405152e-01
    x[2,2]    findWorstP[3,2]  -2.6874076809453473e-01
    x[2,2]    findWorstP[4,2]  -2.7005789909015715e-01
    x[2,2]    findWorstP[5,2]  -8.2820947736669148e-02
    x[2,3]    allocateEach[3]  1
    x[2,3]    findWorstP[1,2]  -3.0433716367713010e-01
    x[2,3]    findWorstP[2,1]  3.2319846779985634e-01
    x[2,3]    findWorstP[2,3]  3.2319846779985634e-01
    x[2,3]    findWorstP[2,4]  3.2319846779985634e-01
    x[2,3]    findWorstP[2,5]  3.2319846779985634e-01
    x[2,3]    findWorstP[3,2]  -1.8069916297390451e-01
    x[2,3]    findWorstP[4,2]  -2.3609043286462639e-01
    x[2,3]    findWorstP[5,2]  -2.3550302130817347e-01
    x[2,4]    allocateEach[4]  1
    x[2,4]    findWorstP[1,2]  -2.5928391255605382e-01
    x[2,4]    findWorstP[2,1]  2.0078206048998481e-01
    x[2,4]    findWorstP[2,3]  2.0078206048998481e-01
    x[2,4]    findWorstP[2,4]  2.0078206048998481e-01
    x[2,4]    findWorstP[2,5]  2.0078206048998481e-01
    x[2,4]    findWorstP[3,2]  -7.0962580009847370e-02
    x[2,4]    findWorstP[4,2]  -9.0929142542045760e-02
    x[2,4]    findWorstP[5,2]  -2.3778225378988660e-01
    x[2,5]    allocateEach[5]  1
    x[2,5]    findWorstP[1,2]  -1.7656950672645742e-02
    x[2,5]    findWorstP[2,1]  1.8146995451280820e-01
    x[2,5]    findWorstP[2,3]  1.8146995451280820e-01
    x[2,5]    findWorstP[2,4]  1.8146995451280820e-01
    x[2,5]    findWorstP[2,5]  1.8146995451280820e-01
    x[2,5]    findWorstP[3,2]  -2.2288897095027083e-01
    x[2,5]    findWorstP[4,2]  -1.4913151364764268e-01
    x[2,5]    findWorstP[5,2]  -1.7748860383759146e-01
    x[3,1]    allocateEach[1]  1
    x[3,1]    findWorstP[1,3]  -3.2987668161434980e-01
    x[3,1]    findWorstP[2,3]  -3.7307477455909337e-02
    x[3,1]    findWorstP[3,1]  2.2593549975381585e-01
    x[3,1]    findWorstP[3,2]  2.2593549975381585e-01
    x[3,1]    findWorstP[3,4]  2.2593549975381585e-01
    x[3,1]    findWorstP[3,5]  2.2593549975381585e-01
    x[3,1]    findWorstP[4,3]  -2.2622001654259719e-01
    x[3,1]    findWorstP[5,3]  -2.3990247005194534e-01
    x[3,2]    allocateEach[2]  1
    x[3,2]    findWorstP[1,3]  -5.3811659192825115e-02
    x[3,2]    findWorstP[2,3]  -2.1734099433405152e-01
    x[3,2]    findWorstP[3,1]  2.6874076809453473e-01
    x[3,2]    findWorstP[3,2]  2.6874076809453473e-01
    x[3,2]    findWorstP[3,4]  2.6874076809453473e-01
    x[3,2]    findWorstP[3,5]  2.6874076809453473e-01
    x[3,2]    findWorstP[4,3]  -2.7005789909015715e-01
    x[3,2]    findWorstP[5,3]  -8.2820947736669148e-02
    x[3,3]    allocateEach[3]  1
    x[3,3]    findWorstP[1,3]  -3.0433716367713010e-01
    x[3,3]    findWorstP[2,3]  -3.2319846779985634e-01
    x[3,3]    findWorstP[3,1]  1.8069916297390451e-01
    x[3,3]    findWorstP[3,2]  1.8069916297390451e-01
    x[3,3]    findWorstP[3,4]  1.8069916297390451e-01
    x[3,3]    findWorstP[3,5]  1.8069916297390451e-01
    x[3,3]    findWorstP[4,3]  -2.3609043286462639e-01
    x[3,3]    findWorstP[5,3]  -2.3550302130817347e-01
    x[3,4]    allocateEach[4]  1
    x[3,4]    findWorstP[1,3]  -2.5928391255605382e-01
    x[3,4]    findWorstP[2,3]  -2.0078206048998481e-01
    x[3,4]    findWorstP[3,1]  7.0962580009847370e-02
    x[3,4]    findWorstP[3,2]  7.0962580009847370e-02
    x[3,4]    findWorstP[3,4]  7.0962580009847370e-02
    x[3,4]    findWorstP[3,5]  7.0962580009847370e-02
    x[3,4]    findWorstP[4,3]  -9.0929142542045760e-02
    x[3,4]    findWorstP[5,3]  -2.3778225378988660e-01
    x[3,5]    allocateEach[5]  1
    x[3,5]    findWorstP[1,3]  -1.7656950672645742e-02
    x[3,5]    findWorstP[2,3]  -1.8146995451280820e-01
    x[3,5]    findWorstP[3,1]  2.2288897095027083e-01
    x[3,5]    findWorstP[3,2]  2.2288897095027083e-01
    x[3,5]    findWorstP[3,4]  2.2288897095027083e-01
    x[3,5]    findWorstP[3,5]  2.2288897095027083e-01
    x[3,5]    findWorstP[4,3]  -1.4913151364764268e-01
    x[3,5]    findWorstP[5,3]  -1.7748860383759146e-01
    x[4,1]    allocateEach[1]  1
    x[4,1]    findWorstP[1,4]  -3.2987668161434980e-01
    x[4,1]    findWorstP[2,4]  -3.7307477455909337e-02
    x[4,1]    findWorstP[3,4]  -2.2593549975381585e-01
    x[4,1]    findWorstP[4,1]  2.2622001654259719e-01
    x[4,1]    findWorstP[4,2]  2.2622001654259719e-01
    x[4,1]    findWorstP[4,3]  2.2622001654259719e-01
    x[4,1]    findWorstP[4,5]  2.2622001654259719e-01
    x[4,1]    findWorstP[5,4]  -2.3990247005194534e-01
    x[4,2]    allocateEach[2]  1
    x[4,2]    findWorstP[1,4]  -5.3811659192825115e-02
    x[4,2]    findWorstP[2,4]  -2.1734099433405152e-01
    x[4,2]    findWorstP[3,4]  -2.6874076809453473e-01
    x[4,2]    findWorstP[4,1]  2.7005789909015715e-01
    x[4,2]    findWorstP[4,2]  2.7005789909015715e-01
    x[4,2]    findWorstP[4,3]  2.7005789909015715e-01
    x[4,2]    findWorstP[4,5]  2.7005789909015715e-01
    x[4,2]    findWorstP[5,4]  -8.2820947736669148e-02
    x[4,3]    allocateEach[3]  1
    x[4,3]    findWorstP[1,4]  -3.0433716367713010e-01
    x[4,3]    findWorstP[2,4]  -3.2319846779985634e-01
    x[4,3]    findWorstP[3,4]  -1.8069916297390451e-01
    x[4,3]    findWorstP[4,1]  2.3609043286462639e-01
    x[4,3]    findWorstP[4,2]  2.3609043286462639e-01
    x[4,3]    findWorstP[4,3]  2.3609043286462639e-01
    x[4,3]    findWorstP[4,5]  2.3609043286462639e-01
    x[4,3]    findWorstP[5,4]  -2.3550302130817347e-01
    x[4,4]    allocateEach[4]  1
    x[4,4]    findWorstP[1,4]  -2.5928391255605382e-01
    x[4,4]    findWorstP[2,4]  -2.0078206048998481e-01
    x[4,4]    findWorstP[3,4]  -7.0962580009847370e-02
    x[4,4]    findWorstP[4,1]  9.0929142542045760e-02
    x[4,4]    findWorstP[4,2]  9.0929142542045760e-02
    x[4,4]    findWorstP[4,3]  9.0929142542045760e-02
    x[4,4]    findWorstP[4,5]  9.0929142542045760e-02
    x[4,4]    findWorstP[5,4]  -2.3778225378988660e-01
    x[4,5]    allocateEach[5]  1
    x[4,5]    findWorstP[1,4]  -1.7656950672645742e-02
    x[4,5]    findWorstP[2,4]  -1.8146995451280820e-01
    x[4,5]    findWorstP[3,4]  -2.2288897095027083e-01
    x[4,5]    findWorstP[4,1]  1.4913151364764268e-01
    x[4,5]    findWorstP[4,2]  1.4913151364764268e-01
    x[4,5]    findWorstP[4,3]  1.4913151364764268e-01
    x[4,5]    findWorstP[4,5]  1.4913151364764268e-01
    x[4,5]    findWorstP[5,4]  -1.7748860383759146e-01
    x[5,1]    allocateEach[1]  1
    x[5,1]    findWorstP[1,5]  -3.2987668161434980e-01
    x[5,1]    findWorstP[2,5]  -3.7307477455909337e-02
    x[5,1]    findWorstP[3,5]  -2.2593549975381585e-01
    x[5,1]    findWorstP[4,5]  -2.2622001654259719e-01
    x[5,1]    findWorstP[5,1]  2.3990247005194534e-01
    x[5,1]    findWorstP[5,2]  2.3990247005194534e-01
    x[5,1]    findWorstP[5,3]  2.3990247005194534e-01
    x[5,1]    findWorstP[5,4]  2.3990247005194534e-01
    x[5,2]    allocateEach[2]  1
    x[5,2]    findWorstP[1,5]  -5.3811659192825115e-02
    x[5,2]    findWorstP[2,5]  -2.1734099433405152e-01
    x[5,2]    findWorstP[3,5]  -2.6874076809453473e-01
    x[5,2]    findWorstP[4,5]  -2.7005789909015715e-01
    x[5,2]    findWorstP[5,1]  8.2820947736669148e-02
    x[5,2]    findWorstP[5,2]  8.2820947736669148e-02
    x[5,2]    findWorstP[5,3]  8.2820947736669148e-02
    x[5,2]    findWorstP[5,4]  8.2820947736669148e-02
    x[5,3]    allocateEach[3]  1
    x[5,3]    findWorstP[1,5]  -3.0433716367713010e-01
    x[5,3]    findWorstP[2,5]  -3.2319846779985634e-01
    x[5,3]    findWorstP[3,5]  -1.8069916297390451e-01
    x[5,3]    findWorstP[4,5]  -2.3609043286462639e-01
    x[5,3]    findWorstP[5,1]  2.3550302130817347e-01
    x[5,3]    findWorstP[5,2]  2.3550302130817347e-01
    x[5,3]    findWorstP[5,3]  2.3550302130817347e-01
    x[5,3]    findWorstP[5,4]  2.3550302130817347e-01
    x[5,4]    allocateEach[4]  1
    x[5,4]    findWorstP[1,5]  -2.5928391255605382e-01
    x[5,4]    findWorstP[2,5]  -2.0078206048998481e-01
    x[5,4]    findWorstP[3,5]  -7.0962580009847370e-02
    x[5,4]    findWorstP[4,5]  -9.0929142542045760e-02
    x[5,4]    findWorstP[5,1]  2.3778225378988660e-01
    x[5,4]    findWorstP[5,2]  2.3778225378988660e-01
    x[5,4]    findWorstP[5,3]  2.3778225378988660e-01
    x[5,4]    findWorstP[5,4]  2.3778225378988660e-01
    x[5,5]    allocateEach[5]  1
    x[5,5]    findWorstP[1,5]  -1.7656950672645742e-02
    x[5,5]    findWorstP[2,5]  -1.8146995451280820e-01
    x[5,5]    findWorstP[3,5]  -2.2288897095027083e-01
    x[5,5]    findWorstP[4,5]  -1.4913151364764268e-01
    x[5,5]    findWorstP[5,1]  1.7748860383759146e-01
    x[5,5]    findWorstP[5,2]  1.7748860383759146e-01
    x[5,5]    findWorstP[5,3]  1.7748860383759146e-01
    x[5,5]    findWorstP[5,4]  1.7748860383759146e-01
    MARKER    'MARKER'                 'INTEND'
RHS
    RHS1      allocateEach[1]  1
    RHS1      allocateEach[2]  1
    RHS1      allocateEach[3]  1
    RHS1      allocateEach[4]  1
    RHS1      allocateEach[5]  1
    RHS1      allocateAllCash  1
BOUNDS
 UP BND1      z         1
 MI BND1      cashProportion[1]
 UP BND1      cashProportion[1]  1
 MI BND1      cashProportion[2]
 UP BND1      cashProportion[2]  1
 MI BND1      cashProportion[3]
 UP BND1      cashProportion[3]  1
 MI BND1      cashProportion[4]
 UP BND1      cashProportion[4]  1
 MI BND1      cashProportion[5]
 UP BND1      cashProportion[5]  1
 BV BND1      x[1,1]  
 BV BND1      x[1,2]  
 BV BND1      x[1,3]  
 BV BND1      x[1,4]  
 BV BND1      x[1,5]  
 BV BND1      x[2,1]  
 BV BND1      x[2,2]  
 BV BND1      x[2,3]  
 BV BND1      x[2,4]  
 BV BND1      x[2,5]  
 BV BND1      x[3,1]  
 BV BND1      x[3,2]  
 BV BND1      x[3,3]  
 BV BND1      x[3,4]  
 BV BND1      x[3,5]  
 BV BND1      x[4,1]  
 BV BND1      x[4,2]  
 BV BND1      x[4,3]  
 BV BND1      x[4,4]  
 BV BND1      x[4,5]  
 BV BND1      x[5,1]  
 BV BND1      x[5,2]  
 BV BND1      x[5,3]  
 BV BND1      x[5,4]  
 BV BND1      x[5,5]  
ENDATA
